GLPSOL--GLPK LP/MIP Solver 5.0
Parameter(s) specified in the command line:
 --lp ../modeles/10_359.lp --log 10_359.log
Reading problem data from '../modeles/10_359.lp'...
3631 rows, 7200 columns, 25180 non-zeros
3590 integer variables, all of which are binary
10847 lines were read
GLPK Integer Optimizer 5.0
3631 rows, 7200 columns, 25180 non-zeros
3590 integer variables, all of which are binary
Preprocessing...
3540 constraint coefficient(s) were reduced
3631 rows, 7190 columns, 25170 non-zeros
3590 integer variables, all of which are binary
Scaling...
 A: min|aij| =  3.104e-05  max|aij| =  4.000e+00  ratio =  1.289e+05
GM: min|aij| =  5.278e-02  max|aij| =  1.895e+01  ratio =  3.590e+02
EQ: min|aij| =  2.786e-03  max|aij| =  1.000e+00  ratio =  3.590e+02
2N: min|aij| =  1.953e-03  max|aij| =  1.755e+00  ratio =  8.985e+02
Constructing initial basis...
Size of triangular part is 3631
Solving LP relaxation...
GLPK Simplex Optimizer 5.0
3631 rows, 7190 columns, 25170 non-zeros
      0: obj =   2.000000000e+01 inf =   4.950e+01 (21)
    209: obj =   4.998486965e-01 inf =   0.000e+00 (0)
*   619: obj =  -3.162069737e+00 inf =   3.241e-14 (0)
OPTIMAL LP SOLUTION FOUND
Integer optimization begins...
Long-step dual simplex will be used
+   619: mip =     not found yet >=              -inf        (1; 0)
+   621: >>>>>  -3.162069737e+00 >=  -3.162069737e+00 < 0.1% (3; 0)
+   621: mip =  -3.162069737e+00 >=     tree is empty   0.0% (0; 5)
INTEGER OPTIMAL SOLUTION FOUND
Time used:   0.1 secs
Memory used: 10.4 Mb (10951814 bytes)
